param sigma
: 1   2 :=
1 0.00001 0.99999
2 0.1 0.9
3 0.2 0.8
4 0.3 0.4
5 0.4 0.6
6 0.5 0.5
7 0.6 0.4
8 0.7 0.3
9 0.8 0.2
10 0.9 0.1
11 0.99999 0.00001
;
set S:=
1 2 3 4 5 6 7 8 9 ;

set C:=
1 2 3 4 5 6 7 8 9 10 11 12 13 14 15 16 ;

set M:=
1 2 3 4 5 6 7 8 ;

set T:=
1_1_2 1_3_4 1_5_6 1_7_8 1_9_10 
2_1_2 2_3_4 2_5_6 2_7_8 2_9_10 
3_1_2 3_3_4 3_5_6 3_7_8 3_9_10 
4_1_2 4_3_4 4_5_6 4_7_8 4_9_10 
5_1_2 5_3_4 5_5_6 5_7_8 5_9_10 
;

set R:=
1 2 3 4 5 6 7 ;

set CM[1]:=
1 2 ;
set CM[2]:=
3 4 ;
set CM[3]:=
5 6 ;
set CM[4]:=
7 8 ;
set CM[5]:=
9 10 ;
set CM[6]:=
11 12 ;
set CM[7]:=
13 14 ;
set CM[8]:=
15 16 ;

set Ms[1]:=
1 5 6 7 8 ;
set Ms[2]:=
1 5 7 8 4 ;
set Ms[3]:=
3 4 5 8 7 ;
set Ms[4]:=
3 5 6 7 ;
set Ms[5]:=
2 3 6 8 4 ;
set Ms[6]:=
3 5 6 8 1 ;
set Ms[7]:=
2 5 6 7 ;
set Ms[8]:=
3 5 6 7 2 ;
set Ms[9]:=
4 5 6 1 7 ;


set Rc[1]:=
2 4 6 ;
set Rc[2]:=
1 3 5 7 ;
set Rc[3]:=
2 4 6 ;
set Rc[4]:=
1 3 5 7 ;
set Rc[5]:=
2 4 6 ;
set Rc[6]:=
1 3 5 7 ;
set Rc[7]:=
2 4 6 ;
set Rc[8]:=
1 3 5 7 ;
set Rc[9]:=
2 4 6 ;
set Rc[10]:=
1 3 5 7 ;
set Rc[11]:=
2 4 6 ;
set Rc[12]:=
1 3 5 7 ;
set Rc[13]:=
2 4 6 ;
set Rc[14]:=
1 3 5 7 ;
set Rc[15]:=
2 4 6 ;
set Rc[16]:=
1 3 5 7 ;


set PTs[1]:= 
1_7_8 2_7_8 2_9_10 2_3_4 3_9_10 3_3_4 3_7_8 3_5_6 4_5_6 4_1_2 5_3_4  ; 
set PTs[2]:= 
1_9_10 1_1_2 1_5_6 2_9_10 2_3_4 2_5_6 3_9_10 3_7_8 4_7_8 5_5_6 5_7_8  ; 
set PTs[3]:= 
1_1_2 1_5_6 1_7_8 2_5_6 3_3_4 3_7_8 3_5_6 3_9_10 4_9_10 4_7_8 5_7_8  ; 
set PTs[4]:= 
1_5_6 2_7_8 2_5_6 2_9_10 3_9_10 3_7_8 4_5_6 5_5_6 5_1_2 5_7_8 5_9_10 ; 
set PTs[5]:= 
1_5_6 1_1_2 1_3_4 1_7_8 3_9_10 3_5_6 4_7_8 4_5_6 5_9_10 5_1_2 5_5_6  ; 
set PTs[6]:= 
1_1_2 1_7_8 1_9_10 3_1_2 4_7_8 4_3_4 4_5_6 4_1_2 5_9_10 5_5_6 5_7_8  ; 
set PTs[7]:= 
1_3_4 1_1_2 1_7_8 2_5_6 2_3_4 2_1_2 3_9_10 3_7_8 3_5_6 3_3_4 4_5_6 4_1_2 5_3_4  ; 
set PTs[8]:= 
1_3_4 2_3_4 2_5_6 2_7_8 3_3_4 3_9_10 3_7_8 3_5_6 4_5_6 4_1_2 4_3_4  ; 
set PTs[9]:= 
1_9_10 2_5_6 2_3_4 2_1_2 3_1_2 4_7_8 5_3_4 5_5_6 5_7_8 5_9_10 5_1_2  ; 


param room_cpcty:=
1 100
2 100
3 100
4 100
5 100
6 100
7 100
;

param class_limit:=
1 100
2 100
3 100
4 100
5 100
6 100
7 100
8 100
9 100
10 100
11 100
12 100
13 100
14 100
15 100
16 100
;

param kmin:=
1 2
2 2
3 2
4 2
5 2
6 2
7 1
8 2
9 2
;

param kmax:=
1 5
2 5
3 5
4 4
5 5
6 5
7 4
8 5
9 5
;

